### ammonia.inp ###
! HF STO-3G Opt 
*xyzfile 0 1 NH3.xyz
### ammonia.inp ###

