### hydrogen.inp ###
! HF STO-3G Opt
*xyzfile 0 1 H2.xyz
### hydrogen.inp ###

