### nitrogen.inp ###
! HF STO-3G Opt 
*xyzfile 0 1 N2.xyz
### nitrogen.inp ###

